W=5;
H=3;

MAX_TIME=W*H;
MAX_TRACKS=4;

TARGET=(3,5);

TRAINS=[(3,1,RIGHT)];

INIT_POS=[
(1,2,STRAIGHT_RL),
(1,5,STRAIGHT_RL),
(3,1,STRAIGHT_RL),
(3,4,STRAIGHT_RL),
(3,5,STRAIGHT_RL),
];
TUNNEL_PAIRS=[];

GATES=[
(3,4,1,false),
];
ACTIVATIONS=[
(1,5,1),
];

DSWITCHES=[];
STATIONS=[];

% the decoy should be in 1,2,right
